(declare-fun var0 () String)
(assert (str.in.re var0 (re.++ (re.+ (re.* (str.to.re "OOO"))) (re.++ (re.+ (re.+ (str.to.re "NN"))) (re.++ (re.+ (re.* (str.to.re "MMM"))) (re.++ (re.* (re.union (str.to.re "K") (str.to.re "L"))) (re.++ (re.* (re.union (str.to.re "III") (str.to.re "JJJ"))) (re.++ (re.* (re.+ (str.to.re "HH"))) (re.++ (re.+ (re.+ (str.to.re "GGG"))) (re.++ (re.* (re.+ (str.to.re "F"))) (re.++ (re.* (re.* (str.to.re "E"))) (re.++ (re.+ (re.union (str.to.re "CC") (str.to.re "DDD"))) (re.++ (re.* (re.* (str.to.re "BBB"))) (re.++ (re.* (re.+ (str.to.re "AAA"))) (re.++ (re.union (re.+ (str.to.re "yyy")) (re.+ (str.to.re "zz"))) (re.++ (re.union (re.* (str.to.re "vvv")) (re.union (str.to.re "w") (str.to.re "x"))) (re.++ (re.* (re.* (str.to.re "uu"))) (re.++ (re.* (re.union (str.to.re "sss") (str.to.re "t"))) (re.++ (re.+ (re.* (str.to.re "r"))) (re.++ (re.* (re.+ (str.to.re "qqq"))) (re.++ (re.* (re.* (str.to.re "ppp"))) (re.++ (re.+ (re.+ (str.to.re "o"))) (re.++ (re.union (re.union (str.to.re "lll") (str.to.re "m")) (re.+ (str.to.re "nn"))) (re.++ (re.+ (re.* (str.to.re "kk"))) (re.++ (re.union (re.+ (str.to.re "h")) (re.union (str.to.re "i") (str.to.re "jj"))) (re.++ (re.union (re.union (str.to.re "ddd") (str.to.re "eee")) (re.union (str.to.re "f") (str.to.re "g"))) (re.++ (re.+ (re.* (str.to.re "c"))) (re.++ (re.union (re.+ (str.to.re "aaa")) (re.* (str.to.re "bbb"))) (re.++ (re.* (re.union (str.to.re "888") (str.to.re "999"))) (re.++ (re.union (re.+ (str.to.re "555")) (re.union (str.to.re "66") (str.to.re "7"))) (re.++ (re.* (re.* (str.to.re "44"))) (re.++ (re.* (re.+ (str.to.re "33"))) (re.++ (re.* (re.* (str.to.re "222"))) (re.++ (re.union (re.* (str.to.re "00")) (re.+ (str.to.re "1"))) (re.++ (re.+ (re.* (str.to.re "~~~"))) (re.++ (re.* (re.+ (str.to.re "}}"))) (re.++ (re.+ (re.union (str.to.re "{{") (str.to.re "|||"))) (re.++ (re.* (re.* (str.to.re "`"))) (re.++ (re.union (re.* (str.to.re "^^")) (re.* (str.to.re "__"))) (re.++ (re.union (re.* (str.to.re "[")) (re.union (str.to.re "\\\\") (str.to.re "]]]"))) (re.++ (re.union (re.union (str.to.re ">") (str.to.re "??")) (re.+ (str.to.re "@@"))) (re.++ (re.* (re.* (str.to.re "="))) (re.++ (re.+ (re.+ (str.to.re "<<<"))) (re.++ (re.* (re.* (str.to.re ";;;"))) (re.++ (re.+ (re.union (str.to.re "/") (str.to.re ":"))) (re.++ (re.* (re.* (str.to.re "."))) (re.++ (re.+ (re.+ (str.to.re "-"))) (re.++ (re.* (re.+ (str.to.re ",,,"))) (re.++ (re.union (re.+ (str.to.re "**")) (re.* (str.to.re "+++"))) (re.++ (re.* (re.+ (str.to.re "))"))) (re.++ (re.union (re.+ (str.to.re "'''")) (re.+ (str.to.re "((("))) (re.++ (re.+ (re.* (str.to.re "&&"))) (re.++ (re.* (re.+ (str.to.re "%%%"))) (re.++ (re.* (re.* (str.to.re "$"))) (re.++ (re.union (re.+ (str.to.re "!")) (re.union (str.to.re """""""") (str.to.re "###"))) (re.++ (re.+ (re.* (str.to.re "ZZZ"))) (re.++ (re.union (re.* (str.to.re "XX")) (re.+ (str.to.re "YY"))) (re.++ (re.union (re.* (str.to.re "VVV")) (re.+ (str.to.re "WW"))) (re.++ (re.+ (re.+ (str.to.re "U"))) (re.++ (re.+ (re.* (str.to.re "TTT"))) (re.++ (re.* (re.* (str.to.re "SS"))) (re.++ (re.+ (re.* (str.to.re "RRR"))) (re.++ (re.union (re.+ (str.to.re "PPP")) (re.+ (str.to.re "Q"))) (re.++ (re.* (re.+ (str.to.re "OOO"))) (re.++ (re.union (re.union (str.to.re "LL") (str.to.re "MMM")) (re.+ (str.to.re "NN"))) (re.++ (re.union (re.+ (str.to.re "III")) (re.union (str.to.re "JJJ") (str.to.re "KK"))) (re.++ (re.union (re.union (str.to.re "FFF") (str.to.re "G")) (re.* (str.to.re "H"))) (re.++ (re.union (re.* (str.to.re "DD")) (re.+ (str.to.re "E"))) (re.++ (re.union (re.+ (str.to.re "B")) (re.* (str.to.re "C"))) (re.++ (re.* (re.+ (str.to.re "AAA"))) (re.++ (re.* (re.+ (str.to.re "z"))) (re.++ (re.* (re.union (str.to.re "xxx") (str.to.re "y"))) (re.++ (re.* (re.union (str.to.re "vv") (str.to.re "w"))) (re.++ (re.* (re.union (str.to.re "t") (str.to.re "uu"))) (re.++ (re.union (re.union (str.to.re "pp") (str.to.re "qq")) (re.union (str.to.re "r") (str.to.re "s"))) (re.++ (re.+ (re.+ (str.to.re "o"))) (re.++ (re.+ (re.+ (str.to.re "nn"))) (re.++ (re.union (re.+ (str.to.re "l")) (re.* (str.to.re "mm"))) (re.++ (re.+ (re.+ (str.to.re "kk"))) (re.++ (re.* (re.* (str.to.re "jj"))) (re.++ (re.union (re.* (str.to.re "hh")) (re.* (str.to.re "ii"))) (re.++ (re.* (re.union (str.to.re "ff") (str.to.re "gg"))) (re.++ (re.+ (re.+ (str.to.re "e"))) (re.++ (re.* (re.+ (str.to.re "ddd"))) (re.++ (re.* (re.+ (str.to.re "ccc"))) (re.++ (re.union (re.union (str.to.re "9") (str.to.re "a")) (re.* (str.to.re "b"))) (re.++ (re.* (re.union (str.to.re "7") (str.to.re "8"))) (re.++ (re.+ (re.+ (str.to.re "666"))) (re.++ (re.* (re.* (str.to.re "5"))) (re.++ (re.* (re.* (str.to.re "4"))) (re.++ (re.union (re.+ (str.to.re "11")) (re.union (str.to.re "2") (str.to.re "333"))) (re.++ (re.+ (re.* (str.to.re "00"))) (re.++ (re.+ (re.+ (str.to.re "~~~"))) (re.++ (re.* (re.+ (str.to.re "}"))) (re.++ (re.union (re.+ (str.to.re "`")) (re.union (str.to.re "{") (str.to.re "|"))) (re.++ (re.+ (re.union (str.to.re "^^") (str.to.re "___"))) (re.++ (re.* (re.+ (str.to.re "]]]"))) (re.++ (re.+ (re.* (str.to.re "\\\\\\"))) (re.++ (re.+ (re.* (str.to.re "[["))) (re.++ (re.* (re.* (str.to.re "@@@"))) (re.++ (re.* (re.+ (str.to.re "???"))) (re.++ (re.* (re.+ (str.to.re ">>>"))) (re.++ (re.* (re.+ (str.to.re "=="))) (re.++ (re.+ (re.* (str.to.re "<"))) (re.++ (re.union (re.union (str.to.re "..") (str.to.re "//")) (re.union (str.to.re "::") (str.to.re ";"))) (re.++ (re.* (re.* (str.to.re "---"))) (re.++ (re.+ (re.* (str.to.re ","))) (re.++ (re.+ (re.union (str.to.re "*") (str.to.re "+"))) (re.++ (re.+ (re.+ (str.to.re ")))"))) (re.++ (re.* (re.union (str.to.re "'") (str.to.re "(("))) (re.++ (re.* (re.+ (str.to.re "&&"))) (re.++ (re.union (re.union (str.to.re "###") (str.to.re "$")) (re.* (str.to.re "%"))) (re.++ (re.+ (re.union (str.to.re "!") (str.to.re """"""""))) (re.++ (re.* (re.* (str.to.re "ZZZ"))) (re.++ (re.union (re.* (str.to.re "XX")) (re.* (str.to.re "YY"))) (re.++ (re.+ (re.* (str.to.re "W"))) (re.++ (re.union (re.* (str.to.re "UUU")) (re.* (str.to.re "V"))) (re.++ (re.* (re.* (str.to.re "T"))) (re.++ (re.* (re.* (str.to.re "S"))) (re.++ (re.* (re.+ (str.to.re "RRR"))) (re.++ (re.* (re.* (str.to.re "Q"))) (re.++ (re.+ (re.+ (str.to.re "PPP"))) (re.++ (re.+ (re.+ (str.to.re "OOO"))) (re.++ (re.* (re.+ (str.to.re "N"))) (re.++ (re.* (re.+ (str.to.re "M"))) (re.++ (re.union (re.+ (str.to.re "KKK")) (re.+ (str.to.re "L"))) (re.++ (re.union (re.+ (str.to.re "III")) (re.+ (str.to.re "JJ"))) (re.++ (re.union (re.+ (str.to.re "G")) (re.+ (str.to.re "HH"))) (re.++ (re.+ (re.* (str.to.re "F"))) (re.++ (re.* (re.* (str.to.re "EE"))) (re.++ (re.union (re.+ (str.to.re "CCC")) (re.+ (str.to.re "DDD"))) (re.++ (re.+ (re.union (str.to.re "AA") (str.to.re "B"))) (re.++ (re.+ (re.* (str.to.re "zz"))) (re.++ (re.union (re.+ (str.to.re "ww")) (re.union (str.to.re "xxx") (str.to.re "y"))) (re.++ (re.union (re.union (str.to.re "tt") (str.to.re "u")) (re.* (str.to.re "vvv"))) (re.++ (re.+ (re.* (str.to.re "s"))) (re.++ (re.* (re.union (str.to.re "qqq") (str.to.re "r"))) (re.++ (re.+ (re.union (str.to.re "o") (str.to.re "ppp"))) (re.++ (re.+ (re.* (str.to.re "n"))) (re.++ (re.+ (re.union (str.to.re "lll") (str.to.re "mm"))) (re.++ (re.* (re.* (str.to.re "kk"))) (re.++ (re.* (re.union (str.to.re "iii") (str.to.re "jjj"))) (re.++ (re.+ (re.* (str.to.re "h"))) (re.++ (re.+ (re.* (str.to.re "ggg"))) (re.++ (re.union (re.union (str.to.re "d") (str.to.re "e")) (re.+ (str.to.re "fff"))) (re.++ (re.* (re.union (str.to.re "bbb") (str.to.re "c"))) (re.++ (re.+ (re.+ (str.to.re "aaa"))) (re.++ (re.+ (re.* (str.to.re "999"))) (re.++ (re.union (re.union (str.to.re "55") (str.to.re "666")) (re.union (str.to.re "77") (str.to.re "8"))) (re.++ (re.union (re.* (str.to.re "2")) (re.union (str.to.re "3") (str.to.re "44"))) (re.++ (re.* (re.+ (str.to.re "11"))) (re.++ (re.union (re.* (str.to.re "~~~")) (re.* (str.to.re "0"))) (re.++ (re.+ (re.union (str.to.re "|") (str.to.re "}"))) (re.++ (re.* (re.union (str.to.re "```") (str.to.re "{{{"))) (re.++ (re.+ (re.union (str.to.re "^^") (str.to.re "___"))) (re.++ (re.union (re.* (str.to.re "\\\\\\")) (re.+ (str.to.re "]]]"))) (re.++ (re.+ (re.* (str.to.re "["))) (re.++ (re.+ (re.+ (str.to.re "@"))) (re.++ (re.union (re.* (str.to.re ">>>")) (re.+ (str.to.re "?"))) (re.++ (re.* (re.+ (str.to.re "="))) (re.++ (re.+ (re.union (str.to.re ";;") (str.to.re "<<"))) (re.++ (re.* (re.* (str.to.re "::"))) (re.++ (re.* (re.+ (str.to.re "/"))) (re.++ (re.* (re.union (str.to.re "--") (str.to.re "."))) (re.++ (re.union (re.union (str.to.re ")))") (str.to.re "*")) (re.union (str.to.re "+") (str.to.re ","))) (re.++ (re.union (re.+ (str.to.re "'")) (re.* (str.to.re "(("))) (re.++ (re.+ (re.* (str.to.re "&&"))) (re.++ (re.+ (re.* (str.to.re "%"))) (re.++ (re.+ (re.union (str.to.re "#") (str.to.re "$"))) (re.++ (re.+ (re.+ (str.to.re """"""))) (re.++ (re.* (re.+ (str.to.re "!!"))) (re.++ (re.* (re.+ (str.to.re "ZZ"))) (re.++ (re.union (re.+ (str.to.re "WW")) (re.union (str.to.re "X") (str.to.re "YYY"))) (re.++ (re.+ (re.union (str.to.re "UUU") (str.to.re "VVV"))) (re.++ (re.+ (re.union (str.to.re "SSS") (str.to.re "TTT"))) (re.++ (re.union (re.+ (str.to.re "QQ")) (re.+ (str.to.re "RR"))) (re.++ (re.+ (re.+ (str.to.re "P"))) (re.++ (re.+ (re.+ (str.to.re "OO"))) (re.++ (re.* (re.union (str.to.re "MM") (str.to.re "NN"))) (re.++ (re.union (re.union (str.to.re "J") (str.to.re "K")) (re.+ (str.to.re "LL"))) (re.++ (re.+ (re.+ (str.to.re "I"))) (re.++ (re.union (re.union (str.to.re "EEE") (str.to.re "F")) (re.union (str.to.re "GGG") (str.to.re "HHH"))) (re.++ (re.* (re.union (str.to.re "CC") (str.to.re "DDD"))) (re.++ (re.+ (re.* (str.to.re "BBB"))) (re.++ (re.union (re.+ (str.to.re "zzz")) (re.* (str.to.re "AA"))) (re.++ (re.+ (re.union (str.to.re "xx") (str.to.re "yyy"))) (re.++ (re.+ (re.union (str.to.re "vv") (str.to.re "ww"))) (re.++ (re.* (re.+ (str.to.re "uu"))) (re.++ (re.+ (re.union (str.to.re "sss") (str.to.re "t"))) (re.++ (re.+ (re.union (str.to.re "qqq") (str.to.re "rrr"))) (re.++ (re.* (re.* (str.to.re "pp"))) (re.++ (re.* (re.+ (str.to.re "o"))) (re.++ (re.union (re.* (str.to.re "mmm")) (re.* (str.to.re "nn"))) (re.++ (re.union (re.union (str.to.re "jjj") (str.to.re "k")) (re.+ (str.to.re "lll"))) (re.++ (re.+ (re.union (str.to.re "h") (str.to.re "ii"))) (re.++ (re.+ (re.+ (str.to.re "ggg"))) (re.++ (re.union (re.union (str.to.re "dd") (str.to.re "e")) (re.+ (str.to.re "f"))) (re.++ (re.* (re.* (str.to.re "c"))) (re.++ (re.* (re.+ (str.to.re "bbb"))) (re.++ (re.+ (re.* (str.to.re "aa"))) (re.++ (re.+ (re.* (str.to.re "999"))) (re.++ (re.+ (re.+ (str.to.re "888"))) (re.++ (re.+ (re.union (str.to.re "66") (str.to.re "777"))) (re.++ (re.+ (re.union (str.to.re "444") (str.to.re "555"))) (re.++ (re.union (re.union (str.to.re "1") (str.to.re "222")) (re.+ (str.to.re "3"))) (re.+ (re.* (str.to.re "00"))))))))))))))))))))))))))))))))))))))))))))))))))))))))))))))))))))))))))))))))))))))))))))))))))))))))))))))))))))))))))))))))))))))))))))))))))))))))))))))))))))))))))))))))))))))))))))))))))))))))))))))))
(check-sat)